(set-logic QF_AUFBV)
(declare-fun bvlambda_1_ () (_ BitVec 1))
(declare-fun bvlambda_2_ () (_ BitVec 2))
(declare-fun a13 () (Array (_ BitVec 4) (_ BitVec 1)))
(assert
(let (($e1 (_ bv0 1)))
(let (($e2 (_ bv15336 14)))
(let (($e3 (_ bv0 11)))
(let (($e4 (_ bv0 3)))
(let (($e5 (_ bv2 4)))
(let (($e6 (_ bv0 2)))
(let (($e7 (_ bv6 3)))
(let (($e8 (_ bv0 10)))
(let (($e9 (_ bv64488 16)))
(let (($e10 (_ bv0 13)))
(let (($e14 (concat $e3 bvlambda_1_)))
(let (($e15 (concat $e14 bvlambda_2_)))
(let (($e16 (ite (bvult (bvnot $e2) $e15) #b1 #b0)))
(let (($e17 (concat (bvnot $e4) (bvnot $e16))))
(let (($e18 (concat $e4 (bvnot $e16))))
(let (($e19 (ite (= #b1 $e16) $e18 $e17)))
(let (($e20 (select a13 $e19)))
(let (($e21 (concat $e1 bvlambda_1_)))
(let (($e22 (concat $e21 bvlambda_2_)))
(let (($e23 (select a13 $e22)))
(let (($e24 (store a13 $e5 $e23)))
(let (($e25 (select $e24 $e22)))
(let (($e26 (ite (= $e25 $e20) #b1 #b0)))
(let (($e27 (bvand (bvnot $e20) $e26)))
(let (($e28 (concat $e4 $e20)))
(let (($e29 (concat (bvnot $e4) $e20)))
(let (($e30 (ite (= #b1 $e20) $e29 $e28)))
(let (($e31 (store a13 $e22 $e1)))
(let (($e32 (select $e31 $e30)))
(let (($e33 (concat $e6 $e32)))
(let (($e34 (concat bvlambda_1_ bvlambda_2_)))
(let (($e35 (bvadd (bvnot $e7) (bvnot $e34))))
(let (($e36 (concat (bvnot $e6) (bvnot $e16))))
(let (($e37 (concat $e6 (bvnot $e16))))
(let (($e38 (ite (= #b1 $e16) $e37 $e36)))
(let (($e39 (bvadd $e38 $e35)))
(let (($e40 (ite (bvult $e39 $e33) #b1 #b0)))
(let (($e41 (concat (bvnot $e6) (bvnot $e40))))
(let (($e42 (concat $e6 (bvnot $e40))))
(let (($e43 (ite (= #b1 $e40) $e42 $e41)))
(let (($e44 (concat $e6 $e25)))
(let (($e45 (concat (bvnot $e6) $e25)))
(let (($e46 (ite (= #b1 $e25) $e45 $e44)))
(let (($e47 ((_ extract 2 2) $e46)))
(let (($e48 (concat $e47 $e46)))
(let (($e49 (bvlshr $e48  ((_ zero_extend 2) bvlambda_2_))))
(let (($e50 (bvlshr (bvnot $e48)  ((_ zero_extend 2) bvlambda_2_))))
(let (($e51 (ite (= #b1 $e47) (bvnot $e50) $e49)))
(let (($e52 ((_ extract 2 0) $e51)))
(let (($e53 (concat $e6 $e47)))
(let (($e54 (concat (bvnot $e6) $e47)))
(let (($e55 (ite (= #b1 $e47) $e54 $e53)))
(let (($e56 (ite (= #b1 bvlambda_1_) $e55 $e52)))
(let (($e57 (concat $e6 $e23)))
(let (($e58 (bvurem $e57 $e56)))
(let (($e59 (ite (bvult $e58 $e43) #b1 #b0)))
(let (($e60 (bvand (bvnot $e59) $e27)))
(let (($e61 (bvand $e25 $e16)))
(let (($e62 (bvand $e61 $e60)))
(let (($e63 (concat $e6 $e26)))
(let (($e64 (ite (bvult $e58 $e63) #b1 #b0)))
(let (($e65 (concat (bvnot $e6) $e26)))
(let (($e66 (ite (= #b1 $e26) $e65 $e63)))
(let (($e67 ((_ extract 2 2) $e66)))
(let (($e68 (ite (= bvlambda_1_ $e67) #b1 #b0)))
(let (($e69 ((_ extract 1 0) $e66)))
(let (($e70 (ite (bvult $e69 bvlambda_2_) #b1 #b0)))
(let (($e71 (bvand $e70 $e68)))
(let (($e72 (bvand (bvnot bvlambda_1_) $e67)))
(let (($e73 (bvand (bvnot $e72) (bvnot $e71))))
(let (($e74 (ite (= $e73 $e64) #b1 #b0)))
(let (($e75 (concat $e8 bvlambda_1_)))
(let (($e76 (concat $e75 bvlambda_2_)))
(let (($e77 (concat $e3 $e58)))
(let (($e78 (concat (bvnot $e3) $e58)))
(let (($e79 ((_ extract 2 2) $e58)))
(let (($e80 (ite (= #b1 $e79) $e78 $e77)))
(let (($e81 ((_ extract 3 0) $e80)))
(let (($e82 (bvlshr (bvnot $e9)  ((_ zero_extend 12) $e81))))
(let (($e83 ((_ extract 12 0) $e82)))
(let (($e84 ((_ extract 13 4) $e80)))
(let (($e85 (ite (= $e8 $e84) #b1 #b0)))
(let (($e86 (ite (= #b1 $e85) $e83 $e10)))
(let (($e87 (ite (bvult $e86 $e76) #b1 #b0)))
(let (($e88 ((_ extract 13 13) $e82)))
(let (($e89 (bvand $e85 $e88)))
(let (($e90 (bvand (bvnot $e89) (bvnot $e87))))
(let (($e91 (bvand $e16 $e26)))
(let (($e92 (bvand $e91 $e90)))
(let (($e93 (bvand (bvnot $e91) (bvnot $e90))))
(let (($e94 (bvand (bvnot $e93) (bvnot $e92))))
(let (($e95 (concat $e10 $e25)))
(let (($e96 (concat (bvnot $e10) $e25)))
(let (($e97 (ite (= #b1 $e25) $e96 $e95)))
(let (($e98 ((_ extract 13 13) $e97)))
(let (($e99 (ite (= $e98 $e89) #b1 #b0)))
(let (($e100 ((_ extract 12 0) $e97)))
(let (($e101 (ite (bvult $e100 $e86) #b1 #b0)))
(let (($e102 (bvand $e101 $e99)))
(let (($e103 (bvand $e98 (bvnot $e89))))
(let (($e104 (bvand (bvnot $e103) (bvnot $e102))))
(let (($e105 (bvand (bvnot $e104) $e94)))
(let (($e106 (bvand (bvnot $e105) $e74)))
(let (($e107 (bvand $e20 (bvnot $e32))))
(let (($e108 (bvand (bvnot $e107) $e105)))
(let (($e109 (ite (= $e4 $e56) #b1 #b0)))
(let (($e110 (bvand (bvnot $e109) (bvnot $e108))))
(let (($e111 (bvand $e110 (bvnot $e106))))
(let (($e112 (bvand $e111 (bvnot $e62))))
 (not (= $e112 #b0))))))))))))))))))))))))))))))))))))))))))))))))))))))))))))))))))))))))))))))))))))))))))))))))))))))))))))))))
(check-sat)
(exit)
